;; produced by z3_gnatprove.drv ;;
(set-info :smt-lib-version 2.5)
(set-info :source |VC generated by SPARK 2014|)
(set-info :category industrial)
(set-info :status unknown)
;;; generated by SMT-LIB2 driver
;;; SMT-LIB2 driver: bit-vectors, common part
;;; SMT-LIB2: integer arithmetic
(declare-sort string 0)

(declare-datatypes () ((tuple0 (Tuple0))))
(declare-sort us_private 0)

(declare-fun private__bool_eq (us_private us_private) Bool)

(declare-const us_null_ext__ us_private)

(declare-sort us_type_of_heap 0)

(declare-datatypes ()
((us_type_of_heap__ref
 (us_type_of_heap__refqtmk (us_type_of_heap__content us_type_of_heap)))))
(declare-sort us_image 0)

(declare-datatypes () ((int__ref (int__refqtmk (int__content Int)))))
(declare-datatypes () ((bool__ref (bool__refqtmk (bool__content Bool)))))
(declare-datatypes ()
((us_fixed__ref (us_fixed__refqtmk (us_fixed__content Int)))))
(declare-datatypes () ((real__ref (real__refqtmk (real__content Real)))))
(declare-datatypes ()
((us_private__ref (us_private__refqtmk (us_private__content us_private)))))
(define-fun int__ref___projection ((a int__ref)) Int (int__content a))

(define-fun us_fixed__ref___projection ((a us_fixed__ref)) Int (us_fixed__content
                                                               a))

(define-fun bool__ref___projection ((a bool__ref)) Bool (bool__content a))

(define-fun real__ref___projection ((a real__ref)) Real (real__content a))

(define-fun us_private__ref___projection ((a us_private__ref)) us_private 
  (us_private__content a))

(define-fun in_range ((x Int)) Bool (or (= x 0) (= x 1)))

(declare-fun attr__ATTRIBUTE_IMAGE (Bool) us_image)

(declare-fun attr__ATTRIBUTE_VALUE__pre_check (us_image) Bool)

(declare-fun attr__ATTRIBUTE_VALUE (us_image) Bool)

(declare-sort positive 0)

(declare-fun positiveqtint (positive) Int)

;; positive'axiom
  (assert
  (forall ((i positive))
  (and (<= 1 (positiveqtint i)) (<= (positiveqtint i) 2147483647))))

(define-fun in_range1 ((x Int)) Bool (and (<= 1 x) (<= x 2147483647)))

(declare-fun attr__ATTRIBUTE_IMAGE1 (Int) us_image)

(declare-fun attr__ATTRIBUTE_VALUE__pre_check1 (us_image) Bool)

(declare-fun attr__ATTRIBUTE_VALUE1 (us_image) Int)

(declare-fun user_eq (positive positive) Bool)

(declare-const dummy positive)

(declare-datatypes ()
((positive__ref (positive__refqtmk (positive__content positive)))))
(define-fun positive__ref_positive__content__projection ((a positive__ref)) positive 
  (positive__content a))

(define-fun dynamic_invariant ((temp___expr_46 Int) (temp___is_init_42 Bool)
  (temp___skip_constant_43 Bool) (temp___do_toplevel_44 Bool)
  (temp___do_typ_inv_45 Bool)) Bool (=>
                                    (or (= temp___is_init_42 true)
                                    (<= 1 2147483647)) (in_range1
                                    temp___expr_46)))

(declare-sort t 0)

(declare-fun tqtint (t) Int)

;; t'axiom
  (assert (forall ((i t)) (and (<= 0 (tqtint i)) (<= (tqtint i) 10))))

(define-fun in_range2 ((x Int)) Bool (and (<= 0 x) (<= x 10)))

(declare-fun attr__ATTRIBUTE_IMAGE2 (Int) us_image)

(declare-fun attr__ATTRIBUTE_VALUE__pre_check2 (us_image) Bool)

(declare-fun attr__ATTRIBUTE_VALUE2 (us_image) Int)

(declare-fun user_eq1 (t t) Bool)

(declare-const dummy1 t)

(declare-datatypes () ((t__ref (t__refqtmk (t__content t)))))
(define-fun t__ref_t__content__projection ((a t__ref)) t (t__content a))

(define-fun to_rep ((x t)) Int (tqtint x))

(declare-fun of_rep (Int) t)

;; inversion_axiom
  (assert
  (forall ((x t)) (! (= (of_rep (to_rep x)) x) :pattern ((to_rep x)) )))

;; range_axiom
  (assert (forall ((x t)) (! (in_range2 (to_rep x)) :pattern ((to_rep x)) )))

;; coerce_axiom
  (assert
  (forall ((x Int))
  (! (=> (in_range2 x) (= (to_rep (of_rep x)) x)) :pattern ((to_rep
                                                            (of_rep x))) )))

(declare-datatypes ()
((map__ref (map__refqtmk (map__content (Array Int t))))))
(declare-fun slide ((Array Int t) Int Int) (Array Int t))

;; slide_eq
  (assert
  (forall ((a (Array Int t)))
  (forall ((first Int))
  (! (= (slide a first first) a) :pattern ((slide a first first)) ))))

;; slide_def
  (assert
  (forall ((a (Array Int t)))
  (forall ((old_first Int))
  (forall ((new_first Int))
  (forall ((i Int))
  (! (= (select (slide a old_first new_first) i) (select a (- i (- new_first old_first)))) :pattern ((select 
  (slide a old_first new_first) i)) ))))))

(define-fun bool_eq ((a (Array Int t)) (a__first Int) (a__last Int)
  (b (Array Int t)) (b__first Int)
  (b__last Int)) Bool (ite (and
                           (ite (<= a__first a__last)
                           (and (<= b__first b__last)
                           (= (- a__last a__first) (- b__last b__first)))
                           (< b__last b__first))
                           (forall ((temp___idx_154 Int))
                           (=>
                           (and (<= a__first temp___idx_154)
                           (<= temp___idx_154 a__last))
                           (= (to_rep (select a temp___idx_154)) (to_rep
                                                                 (select b (+ (- b__first a__first) temp___idx_154)))))))
                      true false))

;; bool_eq_rev
  (assert
  (forall ((a (Array Int t)) (b (Array Int t)))
  (forall ((a__first Int) (a__last Int) (b__first Int) (b__last Int))
  (=> (= (bool_eq b b__first b__last a a__first a__last) true)
  (and
  (ite (<= a__first a__last)
  (and (<= b__first b__last) (= (- a__last a__first) (- b__last b__first)))
  (< b__last b__first))
  (forall ((temp___idx_154 Int))
  (=> (and (<= a__first temp___idx_154) (<= temp___idx_154 a__last))
  (= (to_rep (select a temp___idx_154)) (to_rep
                                        (select b (+ (- b__first a__first) temp___idx_154)))))))))))

(declare-const attr__ATTRIBUTE_ADDRESS Int)

(declare-const attr__ATTRIBUTE_ADDRESS1 Int)

(declare-const x (Array Int t))

(declare-const attr__ATTRIBUTE_ADDRESS2 Int)

(declare-const i Int)

(declare-const attr__ATTRIBUTE_ADDRESS3 Int)

(declare-sort taD1 0)

(declare-fun taD1qtint (taD1) Int)

;; taD1'axiom
  (assert
  (forall ((i1 taD1)) (and (<= 1 (taD1qtint i1)) (<= (taD1qtint i1) 100))))

(define-fun in_range3 ((x1 Int)) Bool (and (<= 1 x1) (<= x1 100)))

(declare-fun attr__ATTRIBUTE_IMAGE3 (Int) us_image)

(declare-fun attr__ATTRIBUTE_VALUE__pre_check3 (us_image) Bool)

(declare-fun attr__ATTRIBUTE_VALUE3 (us_image) Int)

(declare-fun user_eq2 (taD1 taD1) Bool)

(declare-const dummy2 taD1)

(declare-datatypes () ((taD1__ref (taD1__refqtmk (taD1__content taD1)))))
(define-fun taD1__ref_taD1__content__projection ((a taD1__ref)) taD1 
  (taD1__content a))

(define-fun dynamic_invariant1 ((temp___expr_161 Int)
  (temp___is_init_157 Bool) (temp___skip_constant_158 Bool)
  (temp___do_toplevel_159 Bool)
  (temp___do_typ_inv_160 Bool)) Bool (=>
                                     (or (= temp___is_init_157 true)
                                     (<= 0 10)) (in_range2 temp___expr_161)))

(declare-const y (Array Int t))

(declare-const b Bool)

;; Assume
  (assert true)

;; Assume
  (assert true)

;; Assume
  (assert (dynamic_invariant i true false true true))

;; Assume
  (assert (and (<= 1 i) (<= i 100)))

(declare-const o Int)

;; H
  (assert
  (ite (= b true) (and (and (<= 1 i) (<= i 100)) (= (to_rep (select x i)) o))
  (and (and (<= 1 i) (<= i 100)) (= (to_rep (select y i)) o))))

(declare-const inline_for_proof__get2__result Int)

;; H
  (assert (= inline_for_proof__get2__result o))

(assert
;; defqtvc
 ;; File "inline_for_proof.ads", line 20, characters 0-0
  (not
  (= inline_for_proof__get2__result (ite (= b true) (to_rep (select x i))
                                    (to_rep (select y i))))))
(check-sat)
